solution status: optimal solution found
objective value:                                    0
$_58_z                                             19 	(obj:0)
$_21_y                                              5 	(obj:0)
$_21_z                                             22 	(obj:0)
$_65_y                                              5 	(obj:0)
$_65_z                                             23 	(obj:0)
$_35_z                                             16 	(obj:0)
$_59_y                                              2 	(obj:0)
$_59_z                                             18 	(obj:0)
$_66_y                                              5 	(obj:0)
$_66_z                                             20 	(obj:0)
$_56_y                                              4 	(obj:0)
$_56_z                                             22 	(obj:0)
$_14_y                                             -1 	(obj:0)
$_14_z                                             16 	(obj:0)
$_57_y                                              2 	(obj:0)
$_57_z                                             22 	(obj:0)
$_61_y                                              2 	(obj:0)
$_61_z                                             21 	(obj:0)
$_40_y                                              9 	(obj:0)
$_40_z                                             23 	(obj:0)
$_12_y                                             -1 	(obj:0)
$_12_z                                             18 	(obj:0)
$_22_y                                             -2 	(obj:0)
$_22_z                                             17 	(obj:0)
$_45_y                                              3 	(obj:0)
$_45_z                                             20 	(obj:0)
$_25_y                                             -1 	(obj:0)
$_25_z                                             17 	(obj:0)
$_44_y                                              3 	(obj:0)
$_44_z                                             18 	(obj:0)
$_67_y                                              7 	(obj:0)
$_67_z                                             20 	(obj:0)
$_27_y                                             -2 	(obj:0)
$_27_z                                             16 	(obj:0)
$_34_y                                              5 	(obj:0)
$_34_z                                             21 	(obj:0)
$_71_y                                              5 	(obj:0)
$_71_z                                             19 	(obj:0)
$_60_y                                              2 	(obj:0)
$_60_z                                             19 	(obj:0)
$_73_y                                              1 	(obj:0)
$_73_z                                             19 	(obj:0)
$_68_y                                              7 	(obj:0)
$_68_z                                             19 	(obj:0)
$_46_z                                             18 	(obj:0)
